
Gurobi 11.0.1 (win64) logging started Mon Apr  1 12:42:18 2024

Set parameter LogFile to value "C:\Projetos\Job_Rotation_Algorithms\Outputs\GurobiLogs\gurobi_log-output-53_hes-c57-BorbaRittModel-NoExtraConstraint-2.log"
Gurobi Optimizer version 11.0.1 build v11.0.1rc0 (win64 - Windows 10.0 (19045.2))

CPU model: 11th Gen Intel(R) Core(TM) i7-1165G7 @ 2.80GHz, instruction set [SSE2|AVX|AVX2|AVX512]
Thread count: 4 physical cores, 8 logical processors, using up to 1 threads


Gurobi 11.0.1 (win64) logging started Mon Apr  1 21:30:15 2024

Set parameter LogFile to value "C:\Projetos\Job_Rotation_Algorithms\Outputs\GurobiLogs\gurobi_log-output-53_hes-c57-BorbaRittModel-NoExtraConstraint-2.log"
Gurobi Optimizer version 11.0.1 build v11.0.1rc0 (win64 - Windows 10.0 (19045.2))

CPU model: 11th Gen Intel(R) Core(TM) i7-1165G7 @ 2.80GHz, instruction set [SSE2|AVX|AVX2|AVX512]
Thread count: 4 physical cores, 8 logical processors, using up to 1 threads


Gurobi 11.0.1 (win64) logging started Thu Apr  4 23:28:13 2024

Set parameter LogFile to value "C:\Projetos\Job_Rotation_Algorithms\Outputs\GurobiLogs\gurobi_log-output-53_hes-c57-BorbaRittModel-NoExtraConstraint-2.log"
Gurobi Optimizer version 11.0.1 build v11.0.1rc0 (win64 - Windows 10.0 (19045.2))

CPU model: 11th Gen Intel(R) Core(TM) i7-1165G7 @ 2.80GHz, instruction set [SSE2|AVX|AVX2|AVX512]
Thread count: 4 physical cores, 8 logical processors, using up to 1 threads


Gurobi 11.0.1 (win64) logging started Sat Apr  6 12:56:48 2024

Set parameter LogFile to value "C:\Projetos\Job_Rotation_Algorithms\Outputs\GurobiLogs\gurobi_log-output-53_hes-c57-BorbaRittModel-NoExtraConstraint-2.log"
Gurobi Optimizer version 11.0.1 build v11.0.1rc0 (win64 - Windows 10.0 (19045.2))

CPU model: 11th Gen Intel(R) Core(TM) i7-1165G7 @ 2.80GHz, instruction set [SSE2|AVX|AVX2|AVX512]
Thread count: 4 physical cores, 8 logical processors, using up to 1 threads


Gurobi 11.0.1 (win64) logging started Sun Apr  7 02:30:42 2024

Set parameter LogFile to value "C:\Projetos\Job_Rotation_Algorithms\Outputs\GurobiLogs\gurobi_log-output-53_hes-c57-BorbaRittModel-NoExtraConstraint-2.log"
Gurobi Optimizer version 11.0.1 build v11.0.1rc0 (win64 - Windows 10.0 (19045.2))

CPU model: 11th Gen Intel(R) Core(TM) i7-1165G7 @ 2.80GHz, instruction set [SSE2|AVX|AVX2|AVX512]
Thread count: 4 physical cores, 8 logical processors, using up to 1 threads


Gurobi 11.0.1 (win64) logging started Sun Apr  7 09:43:34 2024

Set parameter LogFile to value "C:\Projetos\Job_Rotation_Algorithms\Outputs\GurobiLogs\gurobi_log-output-53_hes-c57-BorbaRittModel-NoExtraConstraint-2.log"
Gurobi Optimizer version 11.0.1 build v11.0.1rc0 (win64 - Windows 10.0 (19045.2))

CPU model: 11th Gen Intel(R) Core(TM) i7-1165G7 @ 2.80GHz, instruction set [SSE2|AVX|AVX2|AVX512]
Thread count: 4 physical cores, 8 logical processors, using up to 1 threads


Gurobi 11.0.1 (win64) logging started Tue Apr  9 02:00:19 2024

Set parameter LogFile to value "C:\Projetos\Job_Rotation_Algorithms\Outputs\GurobiLogs\gurobi_log-output-53_hes-c57-BorbaRittModel-NoExtraConstraint-2.log"
Gurobi Optimizer version 11.0.1 build v11.0.1rc0 (win64 - Windows 10.0 (19045.2))

CPU model: 11th Gen Intel(R) Core(TM) i7-1165G7 @ 2.80GHz, instruction set [SSE2|AVX|AVX2|AVX512]
Thread count: 4 physical cores, 8 logical processors, using up to 1 threads

WLS license 2390832 - registered to Bitka Analytics
Optimize a model with 2547 rows, 542 columns and 8010 nonzeros
Model fingerprint: 0x01d92039
Variable types: 2 continuous, 540 integer (540 binary)
Coefficient statistics:
  Matrix range     [1e+00, 1e+02]
  Objective range  [1e+00, 1e+00]
  Bounds range     [1e+00, 1e+02]
  RHS range        [1e+00, 1e+02]
Presolve removed 414 rows and 40 columns
Presolve time: 0.02s
Presolved: 2133 rows, 502 columns, 6731 nonzeros
Variable types: 0 continuous, 502 integer (501 binary)
Found heuristic solution: objective 33.0000000

Root simplex log...

Iteration    Objective       Primal Inf.    Dual Inf.      Time
       0    1.4100000e+02   2.181250e+02   0.000000e+00     17s
     726    5.6000000e+01   0.000000e+00   0.000000e+00     17s

Root relaxation: objective 5.600000e+01, 726 iterations, 0.02 seconds (0.03 work units)

    Nodes    |    Current Node    |     Objective Bounds      |     Work
 Expl Unexpl |  Obj  Depth IntInf | Incumbent    BestBd   Gap | It/Node Time

     0     0   56.00000    0   59   33.00000   56.00000  69.7%     -   16s
H    0     0                      43.0000000   56.00000  30.2%     -   16s
     0     0   56.00000    0  171   43.00000   56.00000  30.2%     -   16s
H    0     0                      44.0000000   56.00000  27.3%     -   16s
     0     0   56.00000    0   86   44.00000   56.00000  27.3%     -   17s
H    0     0                      46.0000000   56.00000  21.7%     -   17s
     0     0   56.00000    0   68   46.00000   56.00000  21.7%     -   17s
     0     0   56.00000    0  109   46.00000   56.00000  21.7%     -   17s
     0     0   56.00000    0  172   46.00000   56.00000  21.7%     -   17s
     0     0   56.00000    0   71   46.00000   56.00000  21.7%     -   17s
     0     0   56.00000    0   70   46.00000   56.00000  21.7%     -   17s
H    0     0                      49.0000000   56.00000  14.3%     -   17s
     0     2   56.00000    0   70   49.00000   56.00000  14.3%     -   17s
H   26    16                      50.0000000   56.00000  12.0%  78.1   17s
H   54    40                      52.0000000   56.00000  7.69%  96.7   17s
H  104    53                      53.0000000   56.00000  5.66%  96.0   17s
   483   202   54.50000   17   95   53.00000   56.00000  5.66%   102   20s
H  576   153                      54.0000000   56.00000  3.70%   101   20s
  1213   207   55.00000   13  147   54.00000   55.50000  2.78%   129   25s
  1750   251   55.50000   30  188   54.00000   55.50000  2.78%   137   30s
  2582    77   55.00000   24  116   54.00000   55.00000  1.85%   123   35s
  3378    74   55.00000   29  130   54.00000   55.00000  1.85%   115   40s
  4482     6 infeasible   24        54.00000   55.00000  1.85%   110   45s

Explored 4660 nodes (508835 simplex iterations) in 45.65 seconds (33.60 work units)
Thread count was 1 (of 8 available processors)

Solution count 9: 54 53 52 ... 33

Optimal solution found (tolerance 1.00e-03)
Best objective 5.400000000000e+01, best bound 5.400000000000e+01, gap 0.0000%
